
  32   50
   0   15    8   10    4   10    2   13   16    8   18   17   22   19   15   12   10   13   13   15   18   10    9   13   14    9   17   10   18    3   19   10    0    0    0    0    0    0    0    0    0    0    0    0    0    0    0    0    0    0

   0   0   0   0   0   0   0   0   0   0   0   0   0   0   0   0   0   0   0   0   0   0   0   0   0   0   0   0   0   0   0   0   0   0   0   0   0   0   0   0   0   0   0   0   0   0   0   0   0   0   0  11 2 3 4 5 7 8 10 11 12 13 14 
   3   0   0   0   0   0   0   0   0   0   0   0   0   0   0   0   7   0   0   0   6   0   0   0   0   3   6   0   0   0   0   0   5   0   0   0   0   0   0   0   0   0   0   0   0   0   0   0   0   0   0   7 31 30 29 28 17 15 6 
   1   0   0   0   0   0   0   0   0   0   0   0   0   0   9   0   0   0   0   0   4  10   0   0   0   0   0   0   0   0   0   7   0   0   0   0   0   0   0   0   0   0   0   0   0   0   0   0   0   0   0   4 21 17 15 6 
   7   0   0   0   0   0   0   0   0   0   0   0   0   0   0   0   0   0   0   0   0   0   0   0   3   8   0   9   7   3   0   0   0   0   0   0   0   0   0   0   0   0   0   0   0   0   0   0   0   0   0   4 22 18 16 9 
   1   0   8   0   0   0   4   0   0   0   0   0   0  10   0   0   0   0   0   0   0   0   0   0   0   0   4   0   1   0   0   0   0   0   0   0   0   0   0   0   0   0   0   0   0   0   0   0   0   0   0   7 29 28 27 18 17 16 15 
   3   0   0   0   2   0   0   0   0   0   0   0   0   0   0   0   0   0   0   0   8   0   0   0   0   0   9   0   2   0   0   0   0   0   0   0   0   0   0   0   0   0   0   0   0   0   0   0   0   0   0   6 27 26 20 19 18 16 
   5   0   0   0   0   2   8   0   0   0   0   0   0   9   5   0   0   0   0   0   0   0   0   4   0   0   0   0   0   0   0   0   0   0   0   0   0   0   0   0   0   0   0   0   0   0   0   0   0   0   0   6 30 29 26 20 19 16 
   4   0   0   0   2   0   0   0   0   0   8   0   0   0   0   0   0   0   8   0   0   0   0   0   0   0   0   0   3   0   0   0   0   0   0   0   0   0   0   0   0   0   0   0   0   0   0   0   0   0   0   7 28 27 26 25 24 20 18 
   6   0   0   0   0   0   0   0   9   0   0   0   0   0   0   5   0   0   0   0   0   0   0   0   0   0   0   0   0   0   0   0   0   0   0   0   0   0   0   0   0   0   0   0   0   0   0   0   0   0   0   6 29 28 27 26 23 15 
   5   0   0   0   0   0   0   0   0   0   0   0   0   0   0   0   1   0   0   0   9   0   0   5   0   0   0   0   0   0   0   0   0   0   0   0   0   0   0   0   0   0   0   0   0   0   0   0   0   0   0   6 29 28 27 25 24 17 
   1   0   0   0   7   0   0   0   0   0   0   0   0   0   0   0   0   0   0   0   0   0   0   0   8   0   0   0   0   0   0  10   7   0   0   0   0   0   0   0   0   0   0   0   0   0   0   0   0   0   0   6 29 26 25 24 21 18 
   9   0   0   0   0   0   0   0   0   0   0   0   0  10   6   0   0   0   0   0   0   0   6   0   0   0   0   0   0   0   0   0   0   0   0   0   0   0   0   0   0   0   0   0   0   0   0   0   0   0   0   5 29 27 26 19 15 
   9   0   0   0   0   0   0   2   0   0   0   0   0   0   0   1   0   0   0   0   0   0   0   0   6   0   0   0   0   3   0   0   0   0   0   0   0   0   0   0   0   0   0   0   0   0   0   0   0   0   0   3 30 25 19 
   8   0   0   0   0   0   0   0   0   0   0   5   0   0   0   0   0   0   0   0   0   0   0   0   0   0   0   0   0   7   0   0   0   0   0   0   0   0   0   0   0   0   0   0   0   0   0   0   0   0   0   3 30 24 18 
   6   0   0   0   0   0   0   0   4   0   0   0   0   0   0   0   0   0   5   0   0   7   0   0   0   0   0   6   7   0   0   3   0   0   0   0   0   0   0   0   0   0   0   0   0   0   0   0   0   0   0   2 25 24 
   6   0   8   0   0   0   0   0   0   0   0   9   0   0   7   0   0   5   9   0   6   0   0   0   0   0   0   0   0   5   0   0   0   0   0   0   0   0   0   0   0   0   0   0   0   0   0   0   0   0   0   2 25 24 
   9   0   0   0   0   0   0   0   3   0   0   0   0   0   1   0   0   1   0   0   0   1   0   0   0   0   0   0   0   0   0   8   0   0   0   0   0   0   0   0   0   0   0   0   0   0   0   0   0   0   0   2 26 23 
   9   0   9   0   0   0   0   0   0   0   0  10   0   8   0   0   0   7   0   0   0   0   0   0   0   2   0   4   0   0   0   0   0   0   0   0   0   0   0   0   0   0   0   0   0   0   0   0   0   0   0   1 23 
   6   0   0   0   0   0   9   0   0   0   0   0   0   0   0  10   0   0   0   0   0   7   8   0   0   0   0   1   0   0   0   0   0   0   0   0   0   0   0   0   0   0   0   0   0   0   0   0   0   0   0   1 23 
   4   0   0   0   0   0   0   0   0   0   0   4   0   0   0   0   0   0   0   9   0   0   0   2   0   0   0   0   0   0   2   0   2   0   0   0   0   0   0   0   0   0   0   0   0   0   0   0   0   0   0   1 23 
   7   0   0   0   0   0   0   0   0   0   0   0   0   0  10   0   0   0   0   0   0   0   6   0   0   0   0   0   0   9   0   7   0   0   0   0   0   0   0   0   0   0   0   0   0   0   0   0   0   0   0   1 28 
   6   0   0   0   0   0   0   0   4   0   7   0   0   0   1   0   0   0   0   0   0   0   0   0   3   0   0   0   0   0   0  10   0   0   0   0   0   0   0   0   0   0   0   0   0   0   0   0   0   0   0   1 27 
   7   0   3   0   0   0   0   0   0   6   0   0   9   0   0   0   0   0   0   0   0   0   9   0   0   0   0   0   0   0   0   0   0   0   0   0   0   0   0   0   0   0   0   0   0   0   0   0   0   0   0   1 32
   8   0   0   0   0   0   0   1   0   0   7   8  10   0   0   0   0   0   0   0   0   0   0   0   0   0   0   0   6   0   3   0   0   0   0   0   0   0   0   0   0   0   0   0   0   0   0   0   0   0   0   1 32
   4   0   0   8   0   0   0   0   0   0   0   0   3   0   5   5   0   0   0   0   0   0   0   0   0   0   0   0   0   0   0   0   0   0   0   0   0   0   0   0   0   0   0   0   0   0   0   0   0   0   0   1 32
   2   0   0   0   8   0   0   0   0   0   0   0   0   0   0   0   9   0   0   0   0   9   0   0   0   0   0   0   0   0   0   0   0   0   0   0   0   0   0   0   0   0   0   0   0   0   0   0   0   0   0   1 32
  10   0   0   0   0   1   0   0   7   8   0   0   0   0   5   0   3   0   0   0   0   0   0   0   0   0   0  10   6   0   0   0   0   0   0   0   0   0   0   0   0   0   0   0   0   0   0   0   0   0   0   1 32
   5   0   7   5   0   4   0   0   0   0   0   0   0   0   0   0   0   0  10   0   0   0   0   0   0   0   0   0   0   0   0   0   0   0   0   0   0   0   0   0   0   0   0   0   0   0   0   0   0   0   0   1 32
   7   0   3   0   0   0   0   0   0   7   0   0   0   0   0   0   2   0   0   0   0   0   0   4   0   0   0   0   0   0   0   0   0   0   0   0   0   0   0   0   0   0   0   0   0   0   0   0   0   0   0   1 32
   5   0   0   0  10   0   0   0   0   0   0   0   0   0   0   4   0   0   0   7   0   0   0   7   0   0   0   0   0   0   0   0   0   0   0   0   0   0   0   0   0   0   0   0   0   0   0   0   0   0   0   1 32
   1   0   0   0   0   0   0   0   0   0   1   0   0   0   0   0   0   0   0   0   0   0   0   0   0   9   0   0   0   0   0   0   0   0   0   0   0   0   0   0   0   0   0   0   0   0   0   0   0   0   0   1 32
   0   0   0   0   0   0   0   0   0   0   0   0   0   0   0   0   0   0   0   0   0   0   0   0   0   0   0   0   0   0   0   0   0   0   0   0   0   0   0   0   0   0   0   0   0   0   0   0   0   0   0   0 
